NAME : amtsp.195706.tour
COMMENT : Length = 195706
COMMENT : Found by LKH-3 [Keld Helsgaun] Sat Dec 23 21:06:08 2023
TYPE : TOUR
DIMENSION : 93
TOUR_SECTION
1
3
15
11
13
27
30
26
28
69
72
71
73
75
68
66
67
24
19
18
16
17
92
35
33
31
32
34
70
23
21
22
25
20
8
9
6
10
7
85
82
81
83
5
91
40
36
37
39
38
52
54
51
55
53
60
57
56
58
65
80
87
86
88
90
48
50
46
49
47
93
2
84
4
12
14
29
74
42
45
41
44
43
79
89
78
76
77
64
63
61
62
59
-1
EOF
